
Gurobi 11.0.3 (linux64) logging started Mon 18 Nov 2024 07:50:10 PM CST

Set parameter LogFile to value "/home/dlcole3/graph_abstraction/hierarchical_graphs/git_storage/CS1/HP_low_reserves/gurobi_logs/serial/logfile_ST5_3.log"

Gurobi 11.0.3 (linux64) logging started Mon 18 Nov 2024 07:51:24 PM CST

Set parameter LogFile to value "/home/dlcole3/graph_abstraction/hierarchical_graphs/git_storage/CS1/HP_low_reserves/gurobi_logs/serial/logfile_ST5_3.log"
Gurobi Optimizer version 11.0.3 build v11.0.3rc0 (linux64 - "Ubuntu 18.04.3 LTS")

CPU model: Intel(R) Xeon(R) CPU E5-2698 v4 @ 2.20GHz, instruction set [SSE2|AVX|AVX2]
Thread count: 40 physical cores, 80 logical processors, using up to 20 threads

Optimize a model with 29168 rows, 50688 columns and 136175 nonzeros
Model fingerprint: 0xafc14c60
Variable types: 46944 continuous, 3744 integer (3744 binary)
Coefficient statistics:
  Matrix range     [6e-01, 2e+04]
  Objective range  [2e+00, 2e+04]
  Bounds range     [5e-02, 2e+05]
  RHS range        [5e-02, 7e+03]
Presolve removed 14502 rows and 38942 columns
Presolve time: 0.35s
Presolved: 14666 rows, 11746 columns, 62686 nonzeros
Variable types: 8730 continuous, 3016 integer (3016 binary)
Found heuristic solution: objective 172973.38206
Found heuristic solution: objective 163658.69632
Found heuristic solution: objective 135943.94490

Root relaxation: objective 2.347855e+04, 7578 iterations, 0.32 seconds (0.22 work units)

    Nodes    |    Current Node    |     Objective Bounds      |     Work
 Expl Unexpl |  Obj  Depth IntInf | Incumbent    BestBd   Gap | It/Node Time

     0     0 23478.5492    0    5 135943.945 23478.5492  82.7%     -    1s
H    0     0                    135938.72034 23478.5492  82.7%     -    1s
H    0     0                    54167.921348 23478.5492  56.7%     -    1s
H    0     0                    54167.921321 23478.5492  56.7%     -    1s
     0     0 23478.5492    0   10 54167.9213 23478.5492  56.7%     -    1s
H    0     0                    33673.937347 23478.5492  30.3%     -    1s
H    0     0                    25318.703977 23478.5492  7.27%     -    1s
     0     0 23478.5492    0   10 25318.7040 23478.5492  7.27%     -    1s
     0     0 23478.5492    0    2 25318.7040 23478.5492  7.27%     -    2s
H    0     0                    25318.703934 23478.5492  7.27%     -    2s
     0     0 23478.5492    0    2 25318.7039 23478.5492  7.27%     -    2s
     0     0 23478.5492    0    2 25318.7039 23478.5492  7.27%     -    2s
     0     2 23478.5492    0    2 25318.7039 23478.5492  7.27%     -    2s
*   14    14               3    24453.337348 23478.5791  3.99%  14.1    3s
H   89    67                    24453.337315 23641.5554  3.32%  11.6    3s
H   90    67                    24453.337130 23641.5554  3.32%  11.7    3s
H   91    67                    24453.336728 23641.5554  3.32%  11.7    3s
H  106    67                    24166.131841 23641.5554  2.17%  10.9    3s
H  161    65                    23874.624854 23641.5554  0.98%   8.3    3s

Explored 590 nodes (16807 simplex iterations) in 3.90 seconds (2.35 work units)
Thread count was 20 (of 80 available processors)

Solution count 10: 23874.6 23874.6 24166.1 ... 163659

Optimal solution found (tolerance 3.00e-03)
Best objective 2.387462485355e+04, best bound 2.386757429036e+04, gap 0.0295%

User-callback calls 2844, time in user-callback 0.00 sec
